# Solution for model probrema
# Objective value = 1.3452102461764176e+05
supply_1_port_14 1172
supply_4_port_11 459
supply_4_port_12 628
supply_4_port_14 1232
X_11_19 459
X_12_15 83
X_12_16 545
X_14_15 468
X_14_17 738
X_14_18 812
X_14_19 386
